0 4752.59
1 4752.59
2 4752.59
3 4752.59
4 4752.59
5 4752.59
6 4752.59
7 4752.59
8 4677.91
9 4677.91
10 4677.91
11 4677.91
12 4677.91
13 4677.31
14 4661.56
15 4661.56
16 4661.56
17 4661.56
18 4661.56
19 4661.56
20 4661.56
21 4661.56
22 4661.56
23 4661.56
24 4661.56
25 4661.56
26 4661.56
27 4661.56
28 4644.81
29 4644.81
30 4644.81
31 4644.81
32 4644.81
33 4617.59
34 4604.71
35 4604.71
36 4604.71
37 4604.71
38 4604.71
39 4604.71
40 4604.71
41 4604.71
42 4598.91
43 4598.91
44 4598.91
45 4598.91
46 4598.91
47 4598.91
48 4598.91
49 4598.91
50 4598.91
51 4598.91
52 4598.91
53 4598.91
54 4598.91
55 4598.91
56 4598.91
57 4598.91
58 4598.91
59 4598.91
60 4598.91
61 4598.91
62 4598.91
63 4598.91
64 4598.91
65 4598.91
66 4598.91
67 4598.91
68 4598.91
69 4598.91
70 4598.91
71 4598.91
72 4598.91
73 4592.42
74 4592.42
75 4592.42
76 4586.16
77 4586.16
78 4586.16
79 4586.16
80 4586.16
81 4586.16
82 4586.16
83 4586.16
84 4586.16
85 4586.16
86 4586.16
87 4586.16
88 4586.16
89 4586.16
90 4586.16
91 4586.16
92 4586.16
93 4586.16
94 4586.16
95 4586.16
96 4586.16
97 4586.16
98 4586.16
99 4586.16
100 4586.16
101 4586.16
102 4586.16
103 4586.16
104 4583.65
105 4583.65
106 4583.65
107 4583.65
108 4583.65
109 4583.65
110 4583.65
111 4583.65
112 4582.65
113 4582.65
114 4582.65
115 4582.65
116 4582.65
117 4582.65
118 4582.65
119 4582.65
120 4582.65
121 4582.65
122 4582.65
123 4582.65
124 4582.65
125 4582.65
126 4578.64
127 4578.64
128 4578.64
129 4578.64
130 4578.64
131 4578.64
132 4578.64
133 4578.64
134 4578.64
135 4578.64
136 4578.64
137 4578.64
138 4578.64
139 4578.64
140 4578.64
141 4578.64
142 4578.64
143 4578.64
144 4578.64
145 4578.64
146 4578.64
147 4578.64
148 4578.64
149 4578.64
150 4578.64
151 4578.64
152 4578.64
153 4578.64
154 4578.64
155 4578.64
156 4578.53
157 4578.53
158 4578.53
159 4577.14
160 4577.14
161 4577.14
162 4577.14
163 4577.14
164 4577.14
165 4577.14
166 4577.14
167 4577.14
168 4577.14
169 4576.58
170 4576.58
171 4576.58
172 4576.58
173 4576.58
174 4576.58
175 4576.58
176 4576.58
177 4576.58
178 4576.58
179 4576.58
180 4576.58
181 4576.58
182 4576.58
183 4576.58
184 4576.58
185 4576.58
186 4560.92
187 4560.92
188 4560.92
189 4560.92
190 4560.92
191 4560.92
192 4560.92
193 4560.92
194 4560.92
195 4560.92
196 4560.92
197 4560.92
198 4560.92
199 4560.92
200 4560.92
201 4560.92
202 4560.92
203 4560.92
204 4560.92
205 4560.92
206 4560.92
207 4560.92
208 4560.92
209 4560.92
210 4560.92
211 4560.92
212 4560.92
213 4560.92
214 4560.92
215 4560.92
216 4560.92
217 4560.92
218 4560.92
219 4560.92
220 4560.92
221 4560.92
222 4560.92
223 4560.92
224 4560.92
225 4560.92
226 4560.92
227 4560.92
228 4560.92
229 4560.92
230 4560.92
231 4560.92
232 4560.92
233 4560.92
234 4560.92
235 4560.92
236 4560.92
237 4560.92
238 4560.92
239 4560.92
240 4560.92
241 4560.92
242 4560.92
243 4560.92
244 4560.92
245 4560.92
246 4560.92
247 4560.92
248 4560.92
249 4560.92
250 4560.92
251 4560.92
252 4560.92
253 4560.92
254 4559.68
255 4559.68
256 4559.68
257 4559.68
258 4559.68
259 4559.68
260 4559.68
261 4559.68
262 4559.29
263 4559.29
264 4559.29
265 4559.29
266 4559.29
267 4559.29
268 4559.29
269 4559.29
270 4559.29
271 4559.29
272 4559.29
273 4559.29
274 4559.29
275 4559.29
276 4548.90
277 4548.90
278 4548.90
279 4548.90
280 4548.90
281 4548.90
282 4548.90
283 4548.90
284 4548.90
285 4548.90
286 4548.90
287 4548.90
288 4548.90
289 4548.90
290 4548.90
291 4548.90
292 4548.90
293 4548.90
294 4548.90
295 4548.90
296 4548.90
297 4548.90
298 4548.90
299 4548.90
300 4548.90
301 4548.90
302 4548.90
303 4548.90
304 4548.90
305 4548.90
306 4548.90
307 4548.90
308 4548.90
309 4548.90
310 4548.90
311 4548.90
312 4548.90
313 4548.90
314 4548.90
315 4548.90
316 4548.90
317 4548.90
318 4548.90
319 4548.90
320 4548.90
321 4548.90
322 4548.90
323 4548.90
324 4540.30
325 4540.30
326 4540.30
327 4540.30
328 4540.30
329 4540.30
330 4540.30
331 4540.30
332 4540.30
333 4540.30
334 4540.30
335 4540.30
336 4540.30
337 4540.30
338 4540.30
339 4540.30
340 4540.30
341 4540.30
342 4540.30
343 4540.30
344 4540.30
345 4540.30
346 4540.30
347 4540.30
348 4540.30
349 4540.30
350 4540.30
351 4540.30
352 4537.72
353 4537.72
354 4537.72
355 4537.72
356 4537.72
357 4537.72
358 4537.72
359 4537.72
360 4537.72
361 4537.72
362 4537.72
363 4537.72
364 4537.72
365 4537.72
366 4514.66
367 4514.66
368 4514.66
369 4514.66
370 4514.66
371 4514.66
372 4514.66
373 4514.66
374 4514.66
375 4514.66
376 4514.66
377 4514.66
378 4514.66
379 4514.66
380 4514.66
381 4514.66
382 4514.66
383 4514.66
384 4514.66
385 4514.66
386 4514.66
387 4511.88
388 4511.88
389 4511.88
390 4511.88
391 4511.88
392 4511.88
393 4511.88
394 4511.88
395 4511.88
396 4511.88
397 4511.88
398 4511.88
399 4511.88
400 4511.88
401 4511.88
402 4511.88
403 4511.88
404 4511.88
405 4511.88
406 4511.88
407 4511.88
408 4511.88
409 4511.88
410 4511.88
411 4511.88
412 4511.88
413 4511.88
414 4511.88
415 4511.88
416 4511.88
417 4511.88
418 4511.88
419 4511.88
420 4511.88
421 4511.88
422 4511.88
423 4511.88
424 4511.88
425 4511.88
426 4511.88
427 4511.88
428 4511.88
429 4511.88
430 4511.88
431 4511.88
432 4511.88
433 4511.88
434 4511.88
435 4511.88
436 4511.88
437 4511.88
438 4511.88
439 4511.88
440 4511.88
441 4511.88
442 4511.88
443 4511.88
444 4511.88
445 4511.88
446 4511.88
447 4511.88
448 4511.88
449 4511.88
450 4511.88
451 4511.88
452 4511.88
453 4511.88
454 4511.88
455 4511.88
456 4511.88
457 4511.88
458 4511.88
459 4511.88
460 4511.88
461 4511.88
462 4511.88
463 4511.88
464 4511.88
465 4511.88
466 4511.88
467 4511.88
468 4511.88
469 4511.88
470 4511.88
471 4511.88
472 4511.88
473 4511.88
474 4511.88
475 4511.88
476 4511.88
477 4511.88
478 4511.88
479 4511.88
480 4511.88
481 4511.88
482 4511.88
483 4511.88
484 4511.88
485 4511.88
486 4511.88
487 4511.88
488 4511.88
489 4511.88
490 4511.88
491 4511.88
492 4511.88
493 4511.88
494 4511.88
495 4511.88
496 4511.88
497 4511.88
498 4511.88
499 4511.88
2 2 10 5 0 0 